Welcome to the CBC MILP Solver 
Version: 2.10.7 
Build Date: Feb 14 2022 

command line - cbc inputs/new_tr/order/triang10_3_up_right_input.lp sec 1800 solve solu solutions/new_tr/triang10_3_up_right_input.lp (default strategy 1)
seconds was changed from 1e+100 to 1800
Continuous objective value is 339 - 0.77 seconds
Cgl0002I 1778 variables fixed
Cgl0003I 0 fixed, 1 tightened bounds, 1603 strengthened rows, 0 substitutions
Cgl0003I 0 fixed, 0 tightened bounds, 586 strengthened rows, 0 substitutions
Cgl0003I 0 fixed, 0 tightened bounds, 35 strengthened rows, 0 substitutions
Cgl0003I 0 fixed, 0 tightened bounds, 9 strengthened rows, 0 substitutions
Cgl0003I 0 fixed, 0 tightened bounds, 5 strengthened rows, 0 substitutions
Cgl0003I 0 fixed, 0 tightened bounds, 2 strengthened rows, 0 substitutions
Cgl0004I processed model has 6697 rows, 2298 columns (2298 integer (2243 of which binary)) and 22113 elements
Cutoff increment increased from 1e-05 to 0.9999
Cbc0045I 1 integer variables out of 2298 objects (2298 integer) have cost of 1 - high priority
Cbc0045I branch on satisfied Y create fake objective Y random cost Y
Cbc0038I Initial state - 796 integers unsatisfied sum - 152.051
Cbc0038I Pass   1: (5.88 seconds) suminf.   57.82383 (512) obj. 375.503 iterations 2815
Cbc0038I Pass   2: (5.95 seconds) suminf.   52.27127 (508) obj. 380.967 iterations 159
Cbc0038I Pass   3: (5.98 seconds) suminf.   51.40183 (507) obj. 379.449 iterations 69
Cbc0038I Pass   4: (6.00 seconds) suminf.   50.90453 (508) obj. 378.886 iterations 42
Cbc0038I Pass   5: (6.12 seconds) suminf.   42.04917 (471) obj. 394.92 iterations 274
Cbc0038I Pass   6: (6.14 seconds) suminf.   41.99336 (477) obj. 394.936 iterations 40
Cbc0038I Pass   7: (6.26 seconds) suminf.   36.09475 (445) obj. 411.882 iterations 338
Cbc0038I Pass   8: (6.30 seconds) suminf.   35.46914 (448) obj. 411.889 iterations 119
Cbc0038I Pass   9: (6.36 seconds) suminf.   36.38893 (444) obj. 417.315 iterations 141
Cbc0038I Pass  10: (6.38 seconds) suminf.   36.19057 (448) obj. 416.032 iterations 38
Cbc0038I Pass  11: (6.45 seconds) suminf.   36.55711 (440) obj. 450.167 iterations 177
Cbc0038I Pass  12: (6.50 seconds) suminf.   31.75420 (446) obj. 435.973 iterations 164
Cbc0038I Pass  13: (6.57 seconds) suminf.   32.44440 (448) obj. 423.953 iterations 179
Cbc0038I Pass  14: (6.60 seconds) suminf.   32.21576 (452) obj. 424.093 iterations 88
Cbc0038I Pass  15: (6.70 seconds) suminf.   29.21889 (407) obj. 424.051 iterations 260
Cbc0038I Pass  16: (6.74 seconds) suminf.   28.21729 (406) obj. 424.023 iterations 87
Cbc0038I Pass  17: (6.83 seconds) suminf.   25.96546 (389) obj. 425.13 iterations 272
Cbc0038I Pass  18: (6.86 seconds) suminf.   25.20274 (383) obj. 425.246 iterations 80
Cbc0038I Pass  19: (6.94 seconds) suminf.   24.47004 (376) obj. 423.98 iterations 201
Cbc0038I Pass  20: (6.97 seconds) suminf.   23.38806 (373) obj. 423.925 iterations 96
Cbc0038I Pass  21: (7.03 seconds) suminf.   24.98083 (382) obj. 425.318 iterations 195
Cbc0038I Pass  22: (7.06 seconds) suminf.   24.74539 (379) obj. 425.316 iterations 62
Cbc0038I Pass  23: (7.07 seconds) suminf.   24.40160 (377) obj. 425.262 iterations 29
Cbc0038I Pass  24: (7.16 seconds) suminf.   23.40610 (380) obj. 424.019 iterations 235
Cbc0038I Pass  25: (7.19 seconds) suminf.   22.73317 (374) obj. 423.994 iterations 69
Cbc0038I Pass  26: (7.21 seconds) suminf.   22.49159 (372) obj. 423.939 iterations 41
Cbc0038I Pass  27: (7.25 seconds) suminf.   24.10317 (390) obj. 425.365 iterations 147
Cbc0038I Pass  28: (7.28 seconds) suminf.   23.80243 (384) obj. 425.331 iterations 45
Cbc0038I Pass  29: (7.29 seconds) suminf.   23.47240 (383) obj. 425.275 iterations 23
Cbc0038I Pass  30: (7.38 seconds) suminf.   25.15757 (385) obj. 423.905 iterations 263
Cbc0038I Pass  31: (7.44 seconds) suminf.   23.72580 (378) obj. 422.337 iterations 157
Cbc0038I Pass  32: (7.46 seconds) suminf.   23.46281 (378) obj. 422.337 iterations 52
Cbc0038I Pass  33: (7.54 seconds) suminf.   20.72067 (357) obj. 423.098 iterations 241
Cbc0038I Pass  34: (7.57 seconds) suminf.   20.03366 (359) obj. 423.024 iterations 51
Cbc0038I Pass  35: (7.67 seconds) suminf.   16.69283 (325) obj. 457.929 iterations 323
Cbc0038I Pass  36: (7.70 seconds) suminf.   15.95910 (323) obj. 460.1 iterations 99
Cbc0038I Pass  37: (7.76 seconds) suminf.   16.73340 (297) obj. 460.249 iterations 178
Cbc0038I Pass  38: (7.79 seconds) suminf.   15.76390 (301) obj. 459.299 iterations 86
Cbc0038I Pass  39: (7.81 seconds) suminf.   15.44356 (296) obj. 459.328 iterations 43
Cbc0038I Pass  40: (7.91 seconds) suminf.   18.98012 (301) obj. 484.771 iterations 301
Cbc0038I Pass  41: (7.94 seconds) suminf.   17.30994 (307) obj. 485.206 iterations 106
Cbc0038I Pass  42: (7.96 seconds) suminf.   16.91953 (307) obj. 485.212 iterations 45
Cbc0038I Pass  43: (8.05 seconds) suminf.   16.31708 (303) obj. 531.822 iterations 262
Cbc0038I Pass  44: (8.07 seconds) suminf.   15.99670 (305) obj. 531.209 iterations 49
Cbc0038I Pass  45: (8.13 seconds) suminf.   15.62219 (304) obj. 528.071 iterations 196
Cbc0038I Pass  46: (8.14 seconds) suminf.   15.62177 (309) obj. 526.754 iterations 8
Cbc0038I Pass  47: (8.25 seconds) suminf.   20.07199 (298) obj. 454.556 iterations 406
Cbc0038I Pass  48: (8.27 seconds) suminf.   18.46663 (299) obj. 457.392 iterations 59
Cbc0038I Pass  49: (8.32 seconds) suminf.   18.01548 (287) obj. 457.767 iterations 155
Cbc0038I Pass  50: (8.34 seconds) suminf.   16.57134 (286) obj. 457.767 iterations 62
Cbc0038I Pass  51: (8.35 seconds) suminf.   16.57159 (287) obj. 457.767 iterations 7
Cbc0038I Pass  52: (8.38 seconds) suminf.   18.77070 (295) obj. 460.747 iterations 132
Cbc0038I Pass  53: (8.42 seconds) suminf.   15.95033 (292) obj. 457.761 iterations 137
Cbc0038I Pass  54: (8.43 seconds) suminf.   15.95033 (292) obj. 457.761 iterations 2
Cbc0038I Pass  55: (8.52 seconds) suminf.   14.70530 (280) obj. 448.145 iterations 345
Cbc0038I Pass  56: (8.57 seconds) suminf.   13.34815 (273) obj. 448.264 iterations 202
Cbc0038I Pass  57: (8.58 seconds) suminf.   13.34815 (273) obj. 448.264 iterations 1
Cbc0038I Pass  58: (8.63 seconds) suminf.   17.88846 (283) obj. 446.542 iterations 189
Cbc0038I Pass  59: (8.65 seconds) suminf.   17.16752 (286) obj. 446.572 iterations 43
Cbc0038I Pass  60: (8.66 seconds) suminf.   17.16752 (286) obj. 446.572 iterations 1
Cbc0038I Pass  61: (8.73 seconds) suminf.   17.57562 (268) obj. 419.038 iterations 253
Cbc0038I Pass  62: (8.75 seconds) suminf.   16.22339 (270) obj. 419.078 iterations 57
Cbc0038I Pass  63: (8.76 seconds) suminf.   16.22339 (270) obj. 419.078 iterations 5
Cbc0038I Pass  64: (8.82 seconds) suminf.   15.31397 (278) obj. 444.834 iterations 212
Cbc0038I Pass  65: (8.84 seconds) suminf.   15.31583 (277) obj. 444.834 iterations 49
Cbc0038I Pass  66: (8.96 seconds) suminf.   16.67920 (275) obj. 430.353 iterations 471
Cbc0038I Pass  67: (8.99 seconds) suminf.   15.80655 (274) obj. 430.326 iterations 68
Cbc0038I Pass  68: (9.02 seconds) suminf.   15.28015 (274) obj. 430.38 iterations 139
Cbc0038I Pass  69: (9.12 seconds) suminf.   15.96374 (267) obj. 426.548 iterations 359
Cbc0038I Pass  70: (9.14 seconds) suminf.   15.57410 (276) obj. 426.548 iterations 60
Cbc0038I Pass  71: (9.24 seconds) suminf.   13.15577 (255) obj. 429.859 iterations 393
Cbc0038I Pass  72: (9.26 seconds) suminf.   12.59826 (269) obj. 430 iterations 41
Cbc0038I Pass  73: (9.39 seconds) suminf.   15.65206 (246) obj. 370.588 iterations 476
Cbc0038I Pass  74: (9.41 seconds) suminf.   13.32006 (246) obj. 378.633 iterations 56
Cbc0038I Pass  75: (9.47 seconds) suminf.   10.54508 (229) obj. 376.204 iterations 235
Cbc0038I Pass  76: (9.48 seconds) suminf.   10.04543 (229) obj. 376.185 iterations 53
Cbc0038I Pass  77: (9.49 seconds) suminf.   10.04543 (229) obj. 376.185 iterations 3
Cbc0038I Pass  78: (9.56 seconds) suminf.   13.56112 (217) obj. 370.689 iterations 265
Cbc0038I Pass  79: (9.58 seconds) suminf.   11.45013 (218) obj. 370.687 iterations 53
Cbc0038I Pass  80: (9.64 seconds) suminf.   10.85823 (218) obj. 376.261 iterations 249
Cbc0038I Pass  81: (9.66 seconds) suminf.    8.77279 (221) obj. 376.261 iterations 56
Cbc0038I Pass  82: (9.70 seconds) suminf.    9.24625 (217) obj. 412.562 iterations 186
Cbc0038I Pass  83: (9.74 seconds) suminf.    7.99460 (217) obj. 428.026 iterations 162
Cbc0038I Pass  84: (9.87 seconds) suminf.   13.38919 (201) obj. 403.851 iterations 569
Cbc0038I Pass  85: (9.88 seconds) suminf.   13.37306 (199) obj. 403.851 iterations 5
Cbc0038I Pass  86: (10.00 seconds) suminf.   11.29139 (225) obj. 452.856 iterations 429
Cbc0038I Pass  87: (10.01 seconds) suminf.    9.28667 (206) obj. 452.48 iterations 46
Cbc0038I Pass  88: (10.05 seconds) suminf.    7.03050 (200) obj. 427.979 iterations 139
Cbc0038I Pass  89: (10.08 seconds) suminf.    6.43641 (195) obj. 427.982 iterations 89
Cbc0038I Pass  90: (10.17 seconds) suminf.   11.78704 (185) obj. 383.613 iterations 381
Cbc0038I Pass  91: (10.19 seconds) suminf.   11.65540 (196) obj. 384.651 iterations 96
Cbc0038I Pass  92: (10.32 seconds) suminf.   10.82515 (224) obj. 398.163 iterations 472
Cbc0038I Pass  93: (10.34 seconds) suminf.    8.37145 (214) obj. 373.251 iterations 73
Cbc0038I Pass  94: (10.43 seconds) suminf.    8.06114 (198) obj. 407.048 iterations 307
Cbc0038I Pass  95: (10.45 seconds) suminf.    6.17124 (195) obj. 407.049 iterations 60
Cbc0038I Pass  96: (10.51 seconds) suminf.    9.29516 (211) obj. 365.706 iterations 249
Cbc0038I Pass  97: (10.53 seconds) suminf.    7.13661 (210) obj. 365.706 iterations 68
Cbc0038I Pass  98: (10.63 seconds) suminf.   12.25127 (218) obj. 365.706 iterations 370
Cbc0038I Pass  99: (10.65 seconds) suminf.   12.19043 (218) obj. 382.783 iterations 83
Cbc0038I Pass 100: (11.07 seconds) suminf.   58.25746 (448) obj. 532.867 iterations 1548
Cbc0038I No solution found this major pass
Cbc0038I Before mini branch and bound, 988 integers at bound fixed and 0 continuous
Cbc0038I Full problem 6697 rows 2298 columns, reduced to 2564 rows 806 columns
Cbc0038I Mini branch and bound improved solution from 1.79769e+308 to 339 (13.48 seconds)
Cbc0038I After 13.48 seconds - Feasibility pump exiting with objective of 339 - took 8.55 seconds
Cbc0012I Integer solution of 339 found by feasibility pump after 0 iterations and 0 nodes (13.49 seconds)
Cbc0001I Search completed - best objective 339, took 0 iterations and 0 nodes (13.50 seconds)
Cbc0035I Maximum depth 0, 0 variables fixed on reduced cost
Cuts at root node changed objective from 339 to 339
Probing was tried 0 times and created 0 cuts of which 0 were active after adding rounds of cuts (0.000 seconds)
Gomory was tried 0 times and created 0 cuts of which 0 were active after adding rounds of cuts (0.000 seconds)
Knapsack was tried 0 times and created 0 cuts of which 0 were active after adding rounds of cuts (0.000 seconds)
Clique was tried 0 times and created 0 cuts of which 0 were active after adding rounds of cuts (0.000 seconds)
MixedIntegerRounding2 was tried 0 times and created 0 cuts of which 0 were active after adding rounds of cuts (0.000 seconds)
FlowCover was tried 0 times and created 0 cuts of which 0 were active after adding rounds of cuts (0.000 seconds)
TwoMirCuts was tried 0 times and created 0 cuts of which 0 were active after adding rounds of cuts (0.000 seconds)
ZeroHalf was tried 0 times and created 0 cuts of which 0 were active after adding rounds of cuts (0.000 seconds)

Result - Optimal solution found

Objective value:                339.00000000
Enumerated nodes:               0
Total iterations:               0
Time (CPU seconds):             13.89
Time (Wallclock seconds):       14.01

Total time (CPU seconds):       13.93   (Wallclock seconds):       14.06

